(set-logic HORN)
(declare-fun inv ((_ BitVec 32) (_ BitVec 32) ) Bool)
(assert (forall ((c (_ BitVec 32)) (i (_ BitVec 32))) 
       (=> ( = i (_ bv0 32) ) (inv c i))))
(assert (forall ((c (_ BitVec 32)) (i (_ BitVec 32)) (c! (_ BitVec 32)) (i! (_ BitVec 32))) 
       (=> (and (inv c i) ( and ( bvsgt c (_ bv48 32) ) ( bvslt c (_ bv57 32) ) ( = i! ( bvadd i i ( bvsub c (_ bv48 32) ) ) ) )) (inv c! i!))))
(assert (forall ((c (_ BitVec 32)) (i (_ BitVec 32))) 
       (=> (inv c i) ( or ( bvsgt c (_ bv57 32) ) ( bvslt c (_ bv48 32) ) ( bvsge i (_ bv0 32) ) ))))
(check-sat)
